c uprop, v00.0, 
c reading from data/prog78.c.cnf
c done reading: 0
p cnf 157 748
-70 -86 0
70 86 0
-58 -80 0
58 80 0
-72 -75 0
72 75 0
-63 -68 0
63 68 0
-61 -77 0
61 77 0
-56 -65 0
56 65 0
-83 -89 0
83 89 0
86 -91 0
-86 91 0
-86 -92 0
86 92 0
-80 -86 94 0
-80 -91 94 0
-86 -91 94 0
80 86 -94 0
80 91 -94 0
86 91 -94 0
80 -94 -95 0
86 -94 -95 0
91 -94 -95 0
-80 94 95 0
-86 94 95 0
-91 94 95 0
-80 -86 -91 95 0
80 86 91 -95 0
-75 -80 97 0
-75 -94 97 0
-80 -94 97 0
75 80 -97 0
75 94 -97 0
80 94 -97 0
75 -97 -98 0
80 -97 -98 0
94 -97 -98 0
-75 97 98 0
-80 97 98 0
-94 97 98 0
-75 -80 -94 98 0
75 80 94 -98 0
-68 -75 100 0
-68 -97 100 0
-75 -97 100 0
68 75 -100 0
68 97 -100 0
75 97 -100 0
68 -100 -101 0
75 -100 -101 0
97 -100 -101 0
-68 100 101 0
-75 100 101 0
-97 100 101 0
-68 -75 -97 101 0
68 75 97 -101 0
-61 -68 102 0
-61 -100 102 0
-68 -100 102 0
61 68 -102 0
61 100 -102 0
68 100 -102 0
61 -102 -103 0
68 -102 -103 0
100 -102 -103 0
-61 102 103 0
-68 102 103 0
-100 102 103 0
-61 -68 -100 103 0
61 68 100 -103 0
-56 -61 104 0
-56 -102 104 0
-61 -102 104 0
56 61 -104 0
56 102 -104 0
61 102 -104 0
56 -104 -105 0
61 -104 -105 0
102 -104 -105 0
-56 104 105 0
-61 104 105 0
-102 104 105 0
-56 -61 -102 105 0
56 61 102 -105 0
-56 -83 106 0
-83 -104 106 0
-56 -104 106 0
56 83 -106 0
83 104 -106 0
56 104 -106 0
83 -88 -106 0
56 -88 -106 0
-88 104 -106 0
-83 88 106 0
-56 88 106 0
88 -104 106 0
-56 -83 88 -104 0
56 83 -88 104 0
83 -85 0
-85 106 0
-83 85 -106 0
-79 -83 -106 0
-79 83 106 0
79 -83 106 0
79 83 -106 0
-74 98 0
74 -98 0
-67 -98 0
67 98 0
60 -86 -101 0
60 -74 -101 0
60 -74 -86 0
-60 86 101 0
-60 74 101 0
-60 74 86 0
-55 -60 101 0
-55 -60 86 0
-55 -60 74 0
55 60 -101 0
55 60 -86 0
55 60 -74 0
55 -74 -86 -101 0
-55 74 86 101 0
-80 82 -103 0
-60 82 -103 0
-60 -80 82 0
80 -82 103 0
60 -82 103 0
60 80 -82 0
-54 -82 103 0
-54 80 -82 0
-54 60 -82 0
54 82 -103 0
54 -80 82 0
54 -60 82 0
54 -60 -80 -103 0
-54 60 80 103 0
53 -75 -105 0
53 -82 -105 0
53 -75 -82 0
-53 75 105 0
-53 82 105 0
-53 75 82 0
-52 -53 105 0
-52 -53 75 0
-52 -53 82 0
52 53 -105 0
52 53 -75 0
52 53 -82 0
52 -75 -82 -105 0
-52 75 82 105 0
51 -68 -88 0
51 -53 -88 0
51 -53 -68 0
-51 68 88 0
-51 53 88 0
-51 53 68 0
-50 -51 88 0
-50 -51 68 0
-50 -51 53 0
50 51 -88 0
50 51 -68 0
50 51 -53 0
50 -53 -68 -88 0
-50 53 68 88 0
49 -61 -79 0
49 -51 -79 0
49 -51 -61 0
-49 61 79 0
-49 51 79 0
-49 51 61 0
-48 -49 79 0
-48 -49 61 0
-48 -49 51 0
48 49 -79 0
48 49 -61 0
48 49 -51 0
48 -51 -61 -79 0
-48 51 61 79 0
47 -56 -85 0
47 -49 -85 0
47 -49 -56 0
-47 56 85 0
-47 49 85 0
-47 49 56 0
-46 -47 85 0
-46 -47 56 0
-46 -47 49 0
46 47 -85 0
46 47 -56 0
46 47 -49 0
46 -49 -56 -85 0
-46 49 56 85 0
-45 83 0
-45 47 0
45 -47 -83 0
-44 -47 -83 0
-44 47 83 0
44 47 -83 0
44 -47 83 0
-43 54 0
43 -54 0
-42 -54 0
42 54 0
41 -52 -86 0
41 -43 -52 0
41 -43 -86 0
-41 52 86 0
-41 43 52 0
-41 43 86 0
-40 -41 52 0
-40 -41 86 0
-40 -41 43 0
40 41 -52 0
40 41 -86 0
40 41 -43 0
40 -43 -52 -86 0
-40 43 52 86 0
39 -50 -80 0
39 -41 -50 0
39 -41 -80 0
-39 50 80 0
-39 41 50 0
-39 41 80 0
-38 -39 50 0
-38 -39 80 0
-38 -39 41 0
38 39 -50 0
38 39 -80 0
38 39 -41 0
38 -41 -50 -80 0
-38 41 50 80 0
37 -48 -75 0
37 -39 -48 0
37 -39 -75 0
-37 48 75 0
-37 39 48 0
-37 39 75 0
37 -48 0
37 -75 0
37 -39 0
-39 -48 -75 0
36 -46 -68 0
36 -37 -46 0
36 -37 -68 0
-36 46 68 0
-36 37 46 0
-36 37 68 0
36 -46 0
36 -68 0
36 -37 0
-37 -46 -68 0
35 -44 -61 0
35 -36 -44 0
35 -36 -61 0
-35 44 61 0
-35 36 44 0
-35 36 61 0
35 -44 0
35 -61 0
35 -36 0
-36 -44 -61 0
34 -45 -56 0
34 -35 -45 0
34 -35 -56 0
-34 45 56 0
-34 35 45 0
-34 35 56 0
34 -45 0
34 -56 0
34 -35 0
-35 -45 -56 0
-34 -83 0
34 -83 0
-34 83 0
-33 -92 0
33 92 0
-32 -95 0
32 95 0
-31 -67 0
31 67 0
-55 -107 0
55 107 0
-42 -108 0
42 108 0
-40 -109 0
40 109 0
-38 -110 0
38 110 0
-111 -113 0
-113 -114 0
111 113 114 0
111 114 -116 0
-111 -114 -116 0
-111 114 116 0
111 -114 116 0
113 -117 0
-117 -118 0
-113 117 118 0
-113 118 -120 0
113 -118 -120 0
113 118 120 0
-113 -118 120 0
117 -121 0
-121 -122 0
-117 121 122 0
-117 122 -124 0
117 -122 -124 0
117 122 124 0
-117 -122 124 0
121 -125 0
-125 -126 0
-121 125 126 0
-121 126 -128 0
121 -126 -128 0
121 126 128 0
-121 -126 128 0
-87 125 0
-87 -129 0
87 -125 129 0
-81 -125 129 0
-81 125 -129 0
81 125 129 0
81 -125 -129 0
-76 87 0
-76 -131 0
76 -87 131 0
-69 -87 131 0
-69 87 -131 0
69 87 131 0
69 -87 -131 0
-62 76 0
-62 -133 0
62 -76 133 0
-57 -76 133 0
-57 76 -133 0
57 76 133 0
57 -76 -133 0
-84 114 0
-84 111 0
84 -111 -114 0
-111 -112 -114 0
111 -112 114 0
111 112 -114 0
-111 112 114 0
-114 115 -118 0
-84 115 -118 0
-84 -114 115 0
114 -115 118 0
84 -115 118 0
84 114 -115 0
-115 118 -119 0
114 -115 -119 0
84 -115 -119 0
115 -118 119 0
-114 115 119 0
-84 115 119 0
-84 -114 -118 119 0
84 114 118 -119 0
-118 -122 123 0
-115 -122 123 0
-115 -118 123 0
118 122 -123 0
115 122 -123 0
115 118 -123 0
122 -123 -127 0
118 -123 -127 0
115 -123 -127 0
-122 123 127 0
-118 123 127 0
-115 123 127 0
-115 -118 -122 127 0
115 118 122 -127 0
-122 -126 130 0
-123 -126 130 0
-122 -123 130 0
122 126 -130 0
123 126 -130 0
122 123 -130 0
126 -130 -132 0
122 -130 -132 0
123 -130 -132 0
-126 130 132 0
-122 130 132 0
-123 130 132 0
-122 -123 -126 132 0
122 123 126 -132 0
-126 -129 134 0
-129 -130 134 0
-126 -130 134 0
126 129 -134 0
129 130 -134 0
126 130 -134 0
129 -134 -135 0
126 -134 -135 0
130 -134 -135 0
-129 134 135 0
-126 134 135 0
-130 134 135 0
-126 -129 -130 135 0
126 129 130 -135 0
-129 -131 136 0
-131 -134 136 0
-129 -134 136 0
129 131 -136 0
131 134 -136 0
129 134 -136 0
131 -136 -137 0
129 -136 -137 0
134 -136 -137 0
-131 136 137 0
-129 136 137 0
-134 136 137 0
-129 -131 -134 137 0
129 131 134 -137 0
-131 -133 138 0
-133 -136 138 0
-131 -136 138 0
131 133 -138 0
133 136 -138 0
131 136 -138 0
133 -138 -139 0
131 -138 -139 0
136 -138 -139 0
-133 138 139 0
-131 138 139 0
-136 138 139 0
-131 -133 -136 139 0
131 133 136 -139 0
133 -140 0
138 -140 0
-133 -138 140 0
-133 -138 -141 0
133 138 -141 0
-133 138 141 0
133 -138 141 0
119 -142 0
111 -142 0
-111 -119 142 0
-111 -119 -143 0
111 119 -143 0
111 -119 143 0
-111 119 143 0
-114 -127 144 0
-127 -142 144 0
-114 -142 144 0
114 127 -144 0
127 142 -144 0
114 142 -144 0
127 -144 -145 0
114 -144 -145 0
142 -144 -145 0
-127 144 145 0
-114 144 145 0
-142 144 145 0
-114 -127 -142 145 0
114 127 142 -145 0
-118 -132 146 0
-132 -144 146 0
-118 -144 146 0
118 132 -146 0
132 144 -146 0
118 144 -146 0
132 -146 -147 0
118 -146 -147 0
144 -146 -147 0
-132 146 147 0
-118 146 147 0
-144 146 147 0
-118 -132 -144 147 0
118 132 144 -147 0
-122 -135 148 0
-135 -146 148 0
-122 -146 148 0
122 135 -148 0
135 146 -148 0
122 146 -148 0
135 -148 -149 0
122 -148 -149 0
146 -148 -149 0
-135 148 149 0
-122 148 149 0
-146 148 149 0
-122 -135 -146 149 0
122 135 146 -149 0
-126 -137 150 0
-137 -148 150 0
-126 -148 150 0
126 137 -150 0
137 148 -150 0
126 148 -150 0
137 -150 -151 0
126 -150 -151 0
148 -150 -151 0
-137 150 151 0
-126 150 151 0
-148 150 151 0
-126 -137 -148 151 0
126 137 148 -151 0
71 -129 -139 0
71 -139 -150 0
71 -129 -150 0
-71 129 139 0
-71 139 150 0
-71 129 150 0
-71 139 -152 0
-71 129 -152 0
-71 150 -152 0
71 -139 152 0
71 -129 152 0
71 -150 152 0
-129 -139 -150 152 0
129 139 150 -152 0
59 -131 -141 0
59 -71 -141 0
59 -71 -131 0
-59 131 141 0
-59 71 141 0
-59 71 131 0
-59 141 -153 0
-59 131 -153 0
-59 71 -153 0
59 -141 153 0
59 -131 153 0
59 -71 153 0
-71 -131 -141 153 0
71 131 141 -153 0
73 -133 -140 0
-59 73 -140 0
-59 73 -133 0
-73 133 140 0
59 -73 140 0
59 -73 133 0
-73 140 -154 0
-73 133 -154 0
59 -73 -154 0
73 -140 154 0
73 -133 154 0
-59 73 154 0
-59 -133 -140 154 0
59 133 140 -154 0
-64 147 0
-64 111 0
64 -111 -147 0
-111 -147 -155 0
111 147 -155 0
111 -147 155 0
-111 147 155 0
78 -114 -149 0
-64 78 -149 0
-64 78 -114 0
-78 114 149 0
64 -78 149 0
64 -78 114 0
-78 149 -156 0
-78 114 -156 0
64 -78 -156 0
78 -149 156 0
78 -114 156 0
-64 78 156 0
-64 -114 -149 156 0
64 114 149 -156 0
66 -118 -151 0
66 -78 -151 0
66 -78 -118 0
-66 118 151 0
-66 78 151 0
-66 78 118 0
-66 151 -157 0
-66 118 -157 0
-66 78 -157 0
66 -151 157 0
66 -118 157 0
66 -78 157 0
-78 -118 -151 157 0
78 118 151 -157 0
90 -122 -152 0
-66 90 -152 0
-66 90 -122 0
-90 122 152 0
66 -90 152 0
66 -90 122 0
90 -152 0
90 -122 0
-66 90 0
-66 -122 -152 0
93 -126 -153 0
-90 93 -153 0
-90 93 -126 0
-93 126 153 0
90 -93 153 0
90 -93 126 0
93 -153 0
93 -126 0
-90 93 0
-90 -126 -153 0
96 -129 -154 0
-93 96 -154 0
-93 96 -129 0
-96 129 154 0
93 -96 154 0
93 -96 129 0
96 -154 0
96 -129 0
-93 96 0
-93 -129 -154 0
-73 99 -131 0
-73 -96 99 0
-96 99 -131 0
73 -99 131 0
73 96 -99 0
96 -99 131 0
-73 99 0
99 -131 0
-96 99 0
-73 -96 -131 0
-99 -133 0
99 -133 0
-99 133 0
-30 -111 0
-30 -112 0
30 111 112 0
-29 111 112 0
-29 -111 -112 0
29 -111 112 0
29 111 -112 0
-28 30 0
-28 -143 0
28 -30 143 0
-27 -30 143 0
-27 30 -143 0
27 30 143 0
27 -30 -143 0
-26 28 0
-26 -145 0
26 -28 145 0
-25 -28 145 0
-25 28 -145 0
25 28 145 0
25 -28 -145 0
-24 26 0
-24 -155 0
24 -26 155 0
-23 -26 155 0
-23 26 -155 0
23 26 155 0
23 -26 -155 0
-22 24 0
-22 -156 0
22 -24 156 0
-21 -24 156 0
-21 24 -156 0
21 24 156 0
21 -24 -156 0
-20 22 0
-20 -157 0
20 -22 157 0
-19 -22 157 0
-19 22 -157 0
19 22 157 0
19 -22 -157 0
-18 20 0
18 -20 0
-17 -20 0
17 20 0
-16 18 0
16 -18 0
-15 -18 0
15 18 0
-14 16 0
14 -16 0
-13 -16 0
13 16 0
-12 14 0
12 -14 0
-11 -14 0
11 14 0
-10 12 0
10 -12 0
-9 -12 0
9 12 0
-8 10 0
8 -10 0
-7 -10 0
7 10 0
-6 92 0
-6 111 0
6 -92 -111 0
-92 -111 0
92 111 0
5 -95 -112 0
5 -6 -95 0
5 -6 -112 0
-5 95 112 0
-5 6 95 0
-5 6 112 0
5 -95 0
5 -112 0
5 -6 0
-6 -95 -112 0
4 -67 -143 0
4 -5 -67 0
4 -5 -143 0
-4 67 143 0
-4 5 67 0
-4 5 143 0
-4 67 0
-4 143 0
-4 5 0
5 67 143 0
3 -55 -145 0
3 -4 -55 0
3 -4 -145 0
-3 55 145 0
-3 4 55 0
-3 4 145 0
3 -55 0
3 -145 0
3 -4 0
-4 -55 -145 0
2 -42 -155 0
2 -3 -42 0
2 -3 -155 0
-2 42 155 0
-2 3 42 0
-2 3 155 0
2 -42 0
2 -155 0
2 -3 0
-3 -42 -155 0
1 -40 -156 0
1 -2 -40 0
1 -2 -156 0
-1 40 156 0
-1 2 40 0
-1 2 156 0
-1 40 0
-1 156 0
-1 2 0
2 40 156 0
-38 -157 0
-1 -38 0
-1 -157 0
1 38 157 0
